0 51 
1 54 
2 50 
3 49 
4 49 
5 48 
6 46 
7 45 
8 44 
9 44 
10 47 
11 47 
12 45 
13 46 
14 44 
15 40 
16 39 
17 38 
18 37 
19 34 
20 35 
21 36 
22 32 
23 32 
24 30 
25 29 
26 32 
27 31 
28 29 
29 28 
30 28 
31 29 
32 25 
33 26 
34 25 
35 25 
36 22 
37 20 
38 21 
39 20 
40 17 
41 16 
42 16 
43 16 
44 14 
45 13 
46 15 
47 12 
48 7 
49 4 
50 6 
51 7 
52 5 
53 7 
54 5 
55 4 
56 3 
57 3 
58 2 
59 1 
60 0 
61 0 

